p cnf 177 545
a 57 0
e 1 2 3 4 5 6 7 8 9 10 11 12 13 14 15 16 17 18 19 20 21 22 23 24 25 26 27 28 29 30 31 32 33 34 35 36 37 38 39 40 41 42 43 44 62 105 162 163 164 165 166 167 168 169 170 171 172 173 174 175 176 177 0
a 58 59 60 61 0
e 45 46 47 48 49 50 51 52 53 54 55 56 63 64 65 66 67 68 69 70 71 72 73 74 75 76 77 78 79 80 81 82 83 84 85 86 87 88 89 90 91 92 93 94 95 96 97 98 99 100 101 102 103 104 106 107 108 109 110 111 112 113 114 115 116 117 118 119 120 121 122 123 124 125 126 127 128 129 130 131 132 133 134 135 136 137 138 139 140 141 142 143 144 145 146 147 148 149 150 151 152 153 154 155 156 157 158 159 160 161 0
62 177 0
-62 -57 0
57 62 0
-176 -175 -174 -173 -172 -171 -170 -169 -168 -167 -166 -165 -164 -163 -162 -105 177 0
-177 105 0
-177 162 0
-177 163 0
-177 164 0
-177 165 0
-177 166 0
-177 167 0
-177 168 0
-177 169 0
-177 170 0
-177 171 0
-177 172 0
-177 173 0
-177 174 0
-177 175 0
-177 176 0
-105 -57 104 0
57 105 0
-104 105 0
-103 -102 -101 -100 -99 -98 -97 -96 -95 -94 -93 -92 -91 -90 -89 -88 -87 -86 -85 -84 -83 -82 -81 -80 -79 -78 -77 -76 -75 -74 -73 -72 -71 -70 -69 -68 -67 -66 -65 -64 -63 -10 -9 -8 -7 104 0
-104 63 0
-104 64 0
-104 65 0
-104 66 0
-104 67 0
-104 7 0
-104 68 0
-104 69 0
-104 8 0
-104 9 0
-104 70 0
-104 71 0
-104 72 0
-104 73 0
-104 74 0
-104 75 0
-104 76 0
-104 77 0
-104 78 0
-104 10 0
-104 79 0
-104 80 0
-104 81 0
-104 82 0
-104 83 0
-104 84 0
-104 85 0
-104 86 0
-104 87 0
-104 88 0
-104 89 0
-104 90 0
-104 91 0
-104 92 0
-104 93 0
-104 94 0
-104 95 0
-104 96 0
-104 97 0
-104 98 0
-104 99 0
-104 100 0
-104 101 0
-104 102 0
-104 103 0
-63 17 21 0
-21 63 0
-17 63 0
-64 1 17 0
-1 64 0
-17 64 0
-65 1 21 0
-1 65 0
-21 65 0
-66 2 17 0
-2 66 0
-17 66 0
-67 2 21 0
-2 67 0
-21 67 0
-68 4 17 0
-4 68 0
-17 68 0
-69 4 21 0
-4 69 0
-21 69 0
-70 18 22 0
-22 70 0
-18 70 0
-71 18 25 0
-25 71 0
-18 71 0
-72 22 25 0
-25 72 0
-22 72 0
-73 3 18 0
-3 73 0
-18 73 0
-74 3 22 0
-3 74 0
-22 74 0
-75 3 25 0
-3 75 0
-25 75 0
-76 5 18 0
-5 76 0
-18 76 0
-77 5 22 0
-5 77 0
-22 77 0
-78 5 25 0
-5 78 0
-25 78 0
-79 19 23 0
-23 79 0
-19 79 0
-80 19 26 0
-26 80 0
-19 80 0
-81 23 26 0
-26 81 0
-23 81 0
-82 19 28 0
-28 82 0
-19 82 0
-83 23 28 0
-28 83 0
-23 83 0
-84 26 28 0
-28 84 0
-26 84 0
-85 6 19 0
-6 85 0
-19 85 0
-86 6 23 0
-6 86 0
-23 86 0
-87 6 26 0
-6 87 0
-26 87 0
-88 6 28 0
-6 88 0
-28 88 0
-89 20 24 0
-24 89 0
-20 89 0
-90 20 27 0
-27 90 0
-20 90 0
-91 24 27 0
-27 91 0
-24 91 0
-92 20 29 0
-29 92 0
-20 92 0
-93 24 29 0
-29 93 0
-24 93 0
-94 27 29 0
-29 94 0
-27 94 0
-95 20 30 0
-30 95 0
-20 95 0
-96 24 30 0
-30 96 0
-24 96 0
-97 29 30 0
-30 97 0
-29 97 0
-98 27 30 0
-30 98 0
-27 98 0
-99 31 32 33 34 0
-31 99 0
-32 99 0
-34 99 0
-33 99 0
-100 35 36 37 38 0
-35 100 0
-36 100 0
-38 100 0
-37 100 0
-101 11 39 40 41 0
-11 101 0
-39 101 0
-41 101 0
-40 101 0
-102 14 15 16 44 0
-14 102 0
-15 102 0
-44 102 0
-16 102 0
-103 12 13 42 43 0
-12 103 0
-13 103 0
-43 103 0
-42 103 0
-162 116 161 0
-116 162 0
-161 162 0
-115 -114 -113 -112 -111 -110 -109 -108 -107 -106 116 0
-116 106 0
-116 107 0
-116 108 0
-116 109 0
-116 110 0
-116 111 0
-116 112 0
-116 113 0
-116 114 0
-116 115 0
-106 -60 -59 -10 58 61 0
10 106 0
-58 106 0
59 106 0
60 106 0
-61 106 0
-107 -60 -59 -58 -9 61 0
9 107 0
58 107 0
59 107 0
60 107 0
-61 107 0
-108 -61 -8 58 59 60 0
8 108 0
-58 108 0
-59 108 0
-60 108 0
61 108 0
-109 -61 -58 -7 59 60 0
7 109 0
58 109 0
-59 109 0
-60 109 0
61 109 0
-110 -61 -59 -6 58 60 0
6 110 0
-58 110 0
59 110 0
-60 110 0
61 110 0
-111 -61 -59 -58 -5 60 0
5 111 0
58 111 0
59 111 0
-60 111 0
61 111 0
-112 -61 -60 -4 58 59 0
4 112 0
-58 112 0
-59 112 0
60 112 0
61 112 0
-113 -61 -60 -58 -3 59 0
3 113 0
58 113 0
-59 113 0
60 113 0
61 113 0
-114 -61 -60 -59 -2 58 0
2 114 0
-58 114 0
59 114 0
60 114 0
61 114 0
-115 -61 -60 -59 -58 -1 0
1 115 0
58 115 0
59 115 0
60 115 0
61 115 0
-160 -159 -158 -157 -156 -155 -154 -152 -150 -148 -146 -144 -142 -140 -138 -136 -134 -131 -128 -125 -122 -119 161 0
-161 119 0
-161 122 0
-161 125 0
-161 128 0
-161 131 0
-161 134 0
-161 136 0
-161 138 0
-161 140 0
-161 142 0
-161 144 0
-161 146 0
-161 148 0
-161 150 0
-161 152 0
-161 154 0
-161 155 0
-161 156 0
-161 157 0
-161 158 0
-161 159 0
-161 160 0
-119 56 118 0
-118 119 0
-56 119 0
-118 -16 117 0
16 118 0
-117 118 0
1 2 3 4 5 6 7 8 9 10 117 0
-117 -10 0
-117 -9 0
-117 -8 0
-117 -7 0
-117 -6 0
-117 -5 0
-117 -4 0
-117 -3 0
-117 -2 0
-117 -1 0
-122 55 121 0
-121 122 0
-55 122 0
-121 -15 120 0
15 121 0
-120 121 0
1 2 3 4 5 6 7 8 9 10 120 0
-120 -10 0
-120 -9 0
-120 -8 0
-120 -7 0
-120 -6 0
-120 -5 0
-120 -4 0
-120 -3 0
-120 -2 0
-120 -1 0
-125 54 124 0
-124 125 0
-54 125 0
-124 -14 123 0
14 124 0
-123 124 0
1 2 3 4 5 6 7 8 9 10 123 0
-123 -10 0
-123 -9 0
-123 -8 0
-123 -7 0
-123 -6 0
-123 -5 0
-123 -4 0
-123 -3 0
-123 -2 0
-123 -1 0
-128 53 127 0
-127 128 0
-53 128 0
-127 -13 126 0
13 127 0
-126 127 0
1 2 3 4 5 6 7 8 9 10 126 0
-126 -10 0
-126 -9 0
-126 -8 0
-126 -7 0
-126 -6 0
-126 -5 0
-126 -4 0
-126 -3 0
-126 -2 0
-126 -1 0
-131 52 130 0
-130 131 0
-52 131 0
-130 -12 129 0
12 130 0
-129 130 0
1 2 3 4 5 6 7 8 9 10 129 0
-129 -10 0
-129 -9 0
-129 -8 0
-129 -7 0
-129 -6 0
-129 -5 0
-129 -4 0
-129 -3 0
-129 -2 0
-129 -1 0
-134 51 133 0
-133 134 0
-51 134 0
-133 -11 132 0
11 133 0
-132 133 0
1 2 3 4 5 6 7 8 9 10 132 0
-132 -10 0
-132 -9 0
-132 -8 0
-132 -7 0
-132 -6 0
-132 -5 0
-132 -4 0
-132 -3 0
-132 -2 0
-132 -1 0
-136 47 49 135 0
-135 136 0
-49 136 0
-47 136 0
-135 -60 -59 58 61 0
-58 135 0
59 135 0
60 135 0
-61 135 0
-138 46 48 137 0
-137 138 0
-48 138 0
-46 138 0
-137 -60 -59 -58 61 0
58 137 0
59 137 0
60 137 0
-61 137 0
-140 45 48 139 0
-139 140 0
-48 140 0
-45 140 0
-139 -61 58 59 60 0
-58 139 0
-59 139 0
-60 139 0
61 139 0
-142 45 46 141 0
-141 142 0
-46 142 0
-45 142 0
-141 -61 -58 59 60 0
58 141 0
-59 141 0
-60 141 0
61 141 0
-144 50 143 0
-143 144 0
-50 144 0
-143 -61 -59 58 60 0
-58 143 0
59 143 0
-60 143 0
61 143 0
-146 49 145 0
-145 146 0
-49 146 0
-145 -61 -59 -58 60 0
58 145 0
59 145 0
-60 145 0
61 145 0
-148 48 147 0
-147 148 0
-48 148 0
-147 -61 -60 58 59 0
-58 147 0
-59 147 0
60 147 0
61 147 0
-150 47 149 0
-149 150 0
-47 150 0
-149 -61 -60 -58 59 0
58 149 0
-59 149 0
60 149 0
61 149 0
-152 46 151 0
-151 152 0
-46 152 0
-151 -61 -60 -59 58 0
-58 151 0
59 151 0
60 151 0
61 151 0
-154 45 153 0
-153 154 0
-45 154 0
-153 -61 -60 -59 -58 0
58 153 0
59 153 0
60 153 0
61 153 0
-155 -56 -50 0
50 155 0
56 155 0
-156 -55 -49 0
49 156 0
55 156 0
-157 -54 -48 0
48 157 0
54 157 0
-158 -53 -47 0
47 158 0
53 158 0
-159 -52 -46 0
46 159 0
52 159 0
-160 -51 -45 0
45 160 0
51 160 0
-163 -44 -30 0
30 163 0
44 163 0
-164 -43 -29 0
29 164 0
43 164 0
-165 -42 -28 0
28 165 0
42 165 0
-166 -41 -27 0
27 166 0
41 166 0
-167 -40 -26 0
26 167 0
40 167 0
-168 -39 -25 0
25 168 0
39 168 0
-169 -38 -24 0
24 169 0
38 169 0
-170 -37 -23 0
23 170 0
37 170 0
-171 -36 -22 0
22 171 0
36 171 0
-172 -35 -21 0
21 172 0
35 172 0
-173 -34 -20 0
20 173 0
34 173 0
-174 -33 -19 0
19 174 0
33 174 0
-175 -32 -18 0
18 175 0
32 175 0
-176 -31 -17 0
17 176 0
31 176 0
